1064
1   1   83   100  0 99 6 28 76 12 26 13 0
1   2   39   71   0 44 38 14 100 0
1   3   27   99   0 98 59 93 5 61 0
1   4   94   99   0 84 17 45 46 47 8 83 18 60 96 0
1   5   59   96   0 37 92 95 97 87 57 15 43 42 91 0
1   6   25   95   0 85 16 86 0
2   1   0    0    0 0
2   2   0    0    0 0
2   3   32   90   0 21 73 72 74 75 4 0
2   4   48   91   0 39 67 23 56 0
2   5   100  100  0 53 27 48 82 58 0
2   6   143  100  0 54 80 78 35 65 66 29 24 55 25 0
3   1   58   99   0 79 3 68 77 50 0
3   2   88   99   0 11 19 36 49 64 63 10 0
3   3   75   96   0 70 20 71 9 34 81 33 0
3   4   104  96   0 52 89 94 2 41 22 40 69 0
3   5   53   86   0 31 88 7 62 90 32 0
3   6   36   41   0 1 51 30 0